(declare-fun Constructed_Argument_t () String)
(declare-fun CreateAsClass () Bool)
(declare-fun Constructed_Argument () Real)
(declare-fun ExpandObjSwitcher () Real)
(declare-fun Constructed_Argument_2_t () String)
(declare-fun Constructed_Argument_3_t () String)
(declare-fun CreateAsClass_2 () Bool)
(declare-fun Constructed_Argument_2 () String)
(declare-fun Constructed_Argument_4_t () String)
(declare-fun Constructed_Argument_5_t () String)
(declare-fun Constructed_Argument_6_t () String)
(declare-fun Constructed_Argument_7_t () String)
(define-funs-rec ( ( str.repeat ((x!1 String) (x!2 Int)) String)
                   ( str.whiteLeft ((x!1 String) (x!2 Int)) Int)
                   ( str.whiteRight ((x!1 String) (x!2 Int)) Int))
                 ( (ite (<= x!2 0)
                        ""
                        (str.++ x!1 ((_ str.repeat 0) x!1 (- x!2 1))))
                   (ite (= (str.at x!1 x!2) " ")
                        ((_ str.whiteLeft 0) x!1 (+ x!2 1))
                        x!2)
                   (ite (= (str.at x!1 x!2) " ")
                        ((_ str.whiteRight 0) x!1 (- x!2 1))
                        x!2)))
(assert (= Constructed_Argument_t "number"))
(assert CreateAsClass)
(assert (not (= Constructed_Argument 0.0)))
(assert (= ExpandObjSwitcher 4.0))
(assert (= Constructed_Argument_2_t "string"))
(assert (not (= Constructed_Argument_3_t "string")))
(assert (not (= Constructed_Argument_3_t "number")))
(assert (not (= Constructed_Argument_3_t "boolean")))
(assert (not (= Constructed_Argument_3_t "object")))
(assert (not (= Constructed_Argument_3_t "array_number")))
(assert (not (= Constructed_Argument_3_t "array_string")))
(assert (not (= Constructed_Argument_3_t "array_bool")))
(assert (not (= Constructed_Argument_3_t "null")))
(assert (not CreateAsClass_2))
(assert (not (<= (to_real (str.len Constructed_Argument_2)) 0.0)))
(assert (not (= Constructed_Argument_4_t "string")))
(assert (not (= Constructed_Argument_4_t "number")))
(assert (not (= Constructed_Argument_4_t "boolean")))
(assert (not (= Constructed_Argument_4_t "object")))
(assert (not (= Constructed_Argument_4_t "array_number")))
(assert (not (= Constructed_Argument_4_t "array_string")))
(assert (not (= Constructed_Argument_4_t "array_bool")))
(assert (not (= Constructed_Argument_4_t "null")))
(assert (not (<= (to_real (str.len Constructed_Argument_2)) 1.0)))
(assert (not (= Constructed_Argument_5_t "string")))
(assert (not (= Constructed_Argument_5_t "number")))
(assert (not (= Constructed_Argument_5_t "boolean")))
(assert (not (= Constructed_Argument_5_t "object")))
(assert (not (= Constructed_Argument_5_t "array_number")))
(assert (not (= Constructed_Argument_5_t "array_string")))
(assert (not (= Constructed_Argument_5_t "array_bool")))
(assert (not (= Constructed_Argument_5_t "null")))
(assert (not (<= (to_real (str.len Constructed_Argument_2)) 2.0)))
(assert (not (= Constructed_Argument_6_t "string")))
(assert (not (= Constructed_Argument_6_t "number")))
(assert (not (= Constructed_Argument_6_t "boolean")))
(assert (not (= Constructed_Argument_6_t "object")))
(assert (not (= Constructed_Argument_6_t "array_number")))
(assert (not (= Constructed_Argument_6_t "array_string")))
(assert (not (= Constructed_Argument_6_t "array_bool")))
(assert (not (= Constructed_Argument_6_t "null")))
(assert (not (<= (to_real (str.len Constructed_Argument_2)) 3.0)))
(assert (not (= Constructed_Argument_7_t "string")))
(assert (= Constructed_Argument_7_t "number"))

(check-sat)